72
11
0 11 13 14 19 20 23 24 26 32 33 34 38 40 42 43 44 48 49 50 53 54 55 60 68 71
1 11 14 16 19 20 22 23 27 30 32 33 34 38 39 43 44 46 49 53 54 55 56 58 60 62 65 68
2 11 12 14 16 17 20 22 23 24 25 26 30 32 33 34 37 38 39 43 44 49 51 52 55 58 59 64 65 70 71
3 11 12 14 18 20 23 26 29 30 32 33 35 37 42 43 44 48 52 54 55 62 68 71
4 16 18 23 24 25 26 27 30 31 32 38 39 40 42 43 44 53 54 56 58 59 61 62 65 71
5 11 12 16 17 18 19 20 21 22 26 30 39 40 44 45 47 51 54 63 64 65 68 69 71
6 15 16 18 21 22 28 30 32 33 38 41 42 43 44 51 53 55 71
7 12 14 18 22 24 29 31 32 36 37 38 39 45 49 51 53 54 55 56 60 62 67 71
8 19 23 33 34 38 41 43 45 48 50 58 62 65 67
9 12 13 17 27 28 29 37 40 42 50 63 66
10 11 26 33 39 57
